HUN,8,6,919
3,26,2,24,0,28,1,24,5,25,4,29
0,22,4,24,2,22,5,24,3,30,1,28
1,29,2,25,5,29,4,27,3,28,0,29
3,21,0,26,5,24,1,30,2,26,4,21
2,24,1,22,3,26,5,22,4,23,0,27
2,25,5,24,3,26,1,24,0,26,4,26
2,21,3,24,5,23,1,21,0,22,4,21
1,27,0,25,5,25,2,29,3,22,4,26
